GLPSOL: GLPK LP/MIP Solver, v4.65
Parameter(s) specified in the command line:
 --model solver_drone_test.mod --data solver_drone_100.dat --output solution.log
 --log cmd_output.log --tmlim 30
Reading model section from solver_drone_test.mod...
41 lines were read
Reading data section from solver_drone_100.dat...
82 lines were read
Generating f...
Generating package_deliverd_once...
Generating package_well_delivered...
Generating time_spent_flying...
Generating autonomy_not_exceeded...
Generating check_time_max...
Model has been successfully generated
GLPK Integer Optimizer, v4.65
12501 rows, 12411 columns, 37631 non-zeros
12411 integer variables, 12400 of which are binary
Preprocessing...
100 rows, 12411 columns, 25230 non-zeros
12411 integer variables, 12400 of which are binary
Scaling...
 A: min|aij| =  1.000e+00  max|aij| =  1.324e+03  ratio =  1.324e+03
GM: min|aij| =  6.201e-01  max|aij| =  1.613e+00  ratio =  2.600e+00
EQ: min|aij| =  3.846e-01  max|aij| =  1.000e+00  ratio =  2.600e+00
2N: min|aij| =  2.500e-01  max|aij| =  1.156e+00  ratio =  4.625e+00
Constructing initial basis...
Size of triangular part is 100
Solving LP relaxation...
GLPK Simplex Optimizer, v4.65
100 rows, 12411 columns, 25230 non-zeros
      0: obj =   0.000000000e+00 inf =   7.859e+02 (1)
    123: obj =   2.514800000e+03 inf =   4.485e-14 (0) 1
*   163: obj =   2.514800000e+03 inf =   2.615e-14 (0)
OPTIMAL LP SOLUTION FOUND
Integer optimization begins...
Long-step dual simplex will be used
+   163: mip =     not found yet >=              -inf        (1; 0)
+  1700: >>>>>   3.212000000e+03 >=   2.515000000e+03  21.7% (99; 0)
+  2314: >>>>>   3.120000000e+03 >=   2.515000000e+03  19.4% (69; 110)
+  2948: >>>>>   3.048000000e+03 >=   2.515000000e+03  17.5% (101; 116)
+  3489: >>>>>   2.960000000e+03 >=   2.515000000e+03  15.0% (99; 182)
+  4542: >>>>>   2.780000000e+03 >=   2.515000000e+03   9.5% (129; 237)
+  5639: >>>>>   2.696000000e+03 >=   2.515000000e+03   6.7% (135; 340)
+  7190: >>>>>   2.672000000e+03 >=   2.515000000e+03   5.9% (167; 403)
+  9616: >>>>>   2.612000000e+03 >=   2.515000000e+03   3.7% (253; 462)
+ 11806: >>>>>   2.604000000e+03 >=   2.515000000e+03   3.4% (297; 642)
+ 12862: >>>>>   2.600000000e+03 >=   2.515000000e+03   3.3% (264; 799)
+ 13681: >>>>>   2.576000000e+03 >=   2.515000000e+03   2.4% (322; 860)
+ 15027: >>>>>   2.572000000e+03 >=   2.515000000e+03   2.2% (405; 973)
+ 15287: >>>>>   2.560000000e+03 >=   2.515000000e+03   1.8% (411; 1015)
+ 19289: mip =   2.560000000e+03 >=   2.515000000e+03   1.8% (827; 1107)
+ 23412: mip =   2.560000000e+03 >=   2.515000000e+03   1.8% (1326; 1172)
+ 27071: mip =   2.560000000e+03 >=   2.515000000e+03   1.8% (1874; 1229)
+ 30789: >>>>>   2.548000000e+03 >=   2.515000000e+03   1.3% (2352; 1281)
+ 33144: mip =   2.548000000e+03 >=   2.515000000e+03   1.3% (1975; 2331)
TIME LIMIT EXCEEDED; SEARCH TERMINATED
Time used:   30.1 secs
Memory used: 55.7 Mb (58366653 bytes)
The package 1 is delivered by the drone 4 to the house 12
The package 2 is delivered by the drone 8 to the house 3
The package 3 is delivered by the drone 8 to the house 23
The package 4 is delivered by the drone 10 to the house 21
The package 5 is delivered by the drone 7 to the house 17
The package 6 is delivered by the drone 8 to the house 25
The package 7 is delivered by the drone 2 to the house 19
The package 8 is delivered by the drone 6 to the house 14
The package 9 is delivered by the drone 3 to the house 23
The package 10 is delivered by the drone 2 to the house 30
The package 11 is delivered by the drone 3 to the house 27
The package 12 is delivered by the drone 4 to the house 7
The package 13 is delivered by the drone 9 to the house 23
The package 14 is delivered by the drone 2 to the house 10
The package 15 is delivered by the drone 7 to the house 4
The package 16 is delivered by the drone 9 to the house 1
The package 17 is delivered by the drone 1 to the house 18
The package 18 is delivered by the drone 1 to the house 28
The package 19 is delivered by the drone 4 to the house 27
The package 20 is delivered by the drone 7 to the house 26
The package 21 is delivered by the drone 8 to the house 20
The package 22 is delivered by the drone 4 to the house 3
The package 23 is delivered by the drone 5 to the house 14
The package 24 is delivered by the drone 9 to the house 24
The package 25 is delivered by the drone 6 to the house 27
The package 26 is delivered by the drone 10 to the house 21
The package 27 is delivered by the drone 3 to the house 19
The package 28 is delivered by the drone 6 to the house 1
The package 29 is delivered by the drone 1 to the house 23
The package 30 is delivered by the drone 1 to the house 4
The package 31 is delivered by the drone 10 to the house 14
The package 32 is delivered by the drone 6 to the house 9
The package 33 is delivered by the drone 5 to the house 31
The package 34 is delivered by the drone 2 to the house 13
The package 35 is delivered by the drone 3 to the house 12
The package 36 is delivered by the drone 10 to the house 18
The package 37 is delivered by the drone 7 to the house 3
The package 38 is delivered by the drone 9 to the house 14
The package 39 is delivered by the drone 10 to the house 7
The package 40 is delivered by the drone 5 to the house 1
Model has been successfully processed
Writing MIP solution to 'solution.log'...
